32 22
7 804
15 444
9 318
10 723
1 390
3 185
19 811
13 555
7 39
4 606
3 955
5 710
2 207
4 380
21 266
3 481
12 723
15 600
18 680
6 547
11 894
17 567
17 54
5 128
20 128
9 149
16 758
12 24
1 945
5 443
20 113
7 709
